
Welcome to IBM(R) ILOG(R) CPLEX(R) Interactive Optimizer 22.1.1.0
  with Simplex, Mixed Integer & Barrier Optimizers
5725-A06 5725-A29 5724-Y48 5724-Y49 5724-Y54 5724-Y55 5655-Y21
Copyright IBM Corp. 1988, 2022.  All Rights Reserved.

Type 'help' for a list of available commands.
Type 'help' followed by a command name for more
information on commands.

CPLEX> Selected objective sense:  MINIMIZE
Selected objective  name:  00000000
Selected RHS        name:  RHS1
Selected bound      name:  BOUND
Problem 'ee.mps' read.
Read time = 0.03 sec. (3.14 ticks)
CPLEX> New value for time limit in seconds: 7200
CPLEX> New value for parallel optimization mode: -1
CPLEX> New value for default parallel thread count: 40
CPLEX> New value for mixed integer optimality gap tolerance: 1e-13
CPLEX> Version identifier: 22.1.1.0 | 2022-11-28 | 9160aff4d
CPXPARAM_Threads                                 40
CPXPARAM_Parallel                                -1
CPXPARAM_TimeLimit                               7200
CPXPARAM_MIP_Tolerances_MIPGap                   1e-13
Found incumbent of value 0.000000 after 0.00 sec. (0.31 ticks)
Tried aggregator 2 times.
MIP Presolve eliminated 182 rows and 2745 columns.
MIP Presolve modified 5862 coefficients.
Aggregator did 713 substitutions.
Reduced MIP has 3624 rows, 7744 columns, and 28667 nonzeros.
Reduced MIP has 7744 binaries, 0 generals, 0 SOSs, and 0 indicators.
Presolve time = 0.07 sec. (68.80 ticks)
Probing time = 0.03 sec. (5.31 ticks)
Tried aggregator 1 time.
Detecting symmetries...
Reduced MIP has 3624 rows, 7744 columns, and 28667 nonzeros.
Reduced MIP has 7744 binaries, 0 generals, 0 SOSs, and 0 indicators.
Presolve time = 0.03 sec. (21.94 ticks)
Probing time = 0.02 sec. (5.09 ticks)
Clique table members: 18558.
MIP emphasis: balance optimality and feasibility.
MIP search method: dynamic search.
Parallel mode: opportunistic, using up to 40 threads.
Root relaxation solution time = 0.15 sec. (116.44 ticks)

        Nodes                                         Cuts/
   Node  Left     Objective  IInf  Best Integer    Best Bound    ItCnt     Gap

*     0+    0                            0.0000  -1.31000e+13              --- 
*     0+    0                      -4.39000e+12  -1.31000e+13           198.41%
*     0+    0                      -5.50000e+12  -1.31000e+13           138.18%
      0     0  -1.30900e+13   136  -5.50000e+12  -1.30900e+13     2543  138.00%
*     0+    0                      -1.08900e+13  -1.30900e+13            20.20%
*     0+    0                      -1.30900e+13  -1.30900e+13             0.00%
      0     0  -1.30900e+13   162  -1.30900e+13     Cuts: 105     2813    0.00%
*     0+    0                      -1.30900e+13  -1.30900e+13             0.00%
      0     0  -1.30900e+13   210  -1.30900e+13      Cuts: 99     3306    0.00%
*     0+    0                      -1.30900e+13  -1.30900e+13             0.00%
      0     2  -1.30900e+13   201  -1.30900e+13  -1.30900e+13     3306    0.00%
Elapsed time = 2.68 sec. (1332.44 ticks, tree = 0.02 MB, solutions = 15)
*     5+    2                      -1.30900e+13  -1.30900e+13             0.00%
*     5+    7                      -1.30900e+13  -1.30900e+13             0.00%
*     7+   37                      -1.30900e+13  -1.30900e+13             0.00%
*     8+   39                      -1.30900e+13  -1.30900e+13             0.00%
     72    63  -1.30900e+13   196  -1.30900e+13  -1.30900e+13    33944    0.00%
    306    85  -1.30900e+13   259  -1.30900e+13  -1.30900e+13    58754    0.00%
    706    96  -1.30900e+13   180  -1.30900e+13  -1.30900e+13    78261    0.00%
   1065   128  -1.30900e+13   122  -1.30900e+13  -1.30900e+13   112434    0.00%
   1355   195  -1.30900e+13   196  -1.30900e+13  -1.30900e+13   141921    0.00%
   1549   301  -1.30900e+13   182  -1.30900e+13  -1.30900e+13   208261    0.00%
   1718   339        cutoff        -1.30900e+13  -1.30900e+13   311525    0.00%
   1939   361  -1.30900e+13   137  -1.30900e+13  -1.30900e+13   294773    0.00%
   2219   379  -1.30900e+13   110  -1.30900e+13  -1.30900e+13   296127    0.00%
   3321   279  -1.30900e+13    67  -1.30900e+13  -1.30900e+13   404765    0.00%
Elapsed time = 8.56 sec. (4448.45 ticks, tree = 2.90 MB, solutions = 49)
   4257   111        cutoff        -1.30900e+13  -1.30900e+13   705645    0.00%
   5289   178        cutoff        -1.30900e+13  -1.30900e+13   650760    0.00%
   6988    54        cutoff        -1.30900e+13  -1.30900e+13  1250835    0.00%
   8692    29        cutoff        -1.30900e+13  -1.30900e+13  1061554    0.00%
  10090    30  -1.30900e+13   128  -1.30900e+13  -1.30900e+13  1144666    0.00%
  11505    42        cutoff        -1.30900e+13  -1.30900e+13  1467600    0.00%
  12995    83  -1.30900e+13   103  -1.30900e+13  -1.30900e+13  1746846    0.00%
  13740    91  -1.30900e+13   120  -1.30900e+13  -1.30900e+13  1731380    0.00%

Performing restart 1

Repeating presolve.
Tried aggregator 2 times.
MIP Presolve eliminated 28 rows and 46 columns.
MIP Presolve modified 1768 coefficients.
Aggregator did 19 substitutions.
Reduced MIP has 3504 rows, 7679 columns, and 27864 nonzeros.
Reduced MIP has 7679 binaries, 0 generals, 0 SOSs, and 0 indicators.
Presolve time = 0.03 sec. (29.32 ticks)
Tried aggregator 2 times.
MIP Presolve eliminated 12 rows and 41 columns.
MIP Presolve modified 28 coefficients.
Aggregator did 15 substitutions.
Reduced MIP has 3477 rows, 7617 columns, and 27638 nonzeros.
Reduced MIP has 7617 binaries, 0 generals, 0 SOSs, and 0 indicators.
Presolve time = 0.06 sec. (53.47 ticks)
Represolve time = 0.25 sec. (156.65 ticks)
  13826     0  -1.30900e+13   332  -1.30900e+13      Cuts: 32  2080161    0.00%
  13826     0  -1.30900e+13   340  -1.30900e+13      Cuts: 27  2080609    0.00%
  13826     0  -1.30900e+13   440  -1.30900e+13      Cuts: 43  2080813    0.00%
  13826     0  -1.30900e+13   423  -1.30900e+13      Cuts: 34  2080988    0.00%
  13826     0  -1.30900e+13   429  -1.30900e+13      Cuts: 27  2081649    0.00%
  13826     4        cutoff        -1.30900e+13  -1.30900e+13  2096993    0.00%
  13876     4  -1.30900e+13   183  -1.30900e+13  -1.30900e+13  2088784    0.00%
Elapsed time = 26.49 sec. (16334.40 ticks, tree = 0.05 MB, solutions = 52)
  13884     3  -1.30900e+13   366  -1.30900e+13  -1.30900e+13  2084178    0.00%

GUB cover cuts applied:  11
Clique cuts applied:  7
Cover cuts applied:  354
Flow cuts applied:  2
Mixed integer rounding cuts applied:  4
Zero-half cuts applied:  39
Lift and project cuts applied:  2
Gomory fractional cuts applied:  15

Root node processing (before b&c):
  Real time             =    1.50 sec. (1320.63 ticks)
Parallel b&c, 40 threads:
  Real time             =   25.02 sec. (16785.86 ticks)
  Sync time (average)   =    7.01 sec.
  Wait time (average)   =    0.10 sec.
                          ------------
Total (root+branch&cut) =   26.53 sec. (18106.49 ticks)

Solution pool: 52 solutions saved.

MIP - Integer optimal solution:  Objective = -1.3089998689e+13
Solution time =   26.66 sec.  Iterations = 2099870  Nodes = 13894
Deterministic time = 18106.52 ticks  (679.04 ticks/sec)

CPLEX> Solution 'p53' written to file 'ee.sol'.
CPLEX> 